400
400
320
319
318
316
314
314
314
313
313
312
312
312
312
311
310
310
309
309
309
307
307
307
306
306
306
305
305
305
305
305
303
303
302
301
300
299
298
298
296
295
293
293
293
293
292
292
291
291
290
290
290
288
287
287
286
286
285
284
282
282
281
280
280
280
280
280
279
278
276
276
275
274
273
272
272
272
271
270
270
269
268
268
266
264
263
261
258
258
258
255
254
254
253
251
251
250
250
247
247
247
247
246
246
244
243
242
242
241
241
241
241
240
239
237
236
236
236
236
234
233
233
233
232
231
231
231
230
228
227
227
227
227
226
226
226
225
223
223
222
221
219
218
217
216
215
213
213
212
212
212
211
211
210
210
210
210
209
207
207
206
206
205
205
205
204
204
204
203
202
201
201
201
201
198
197
197
197
197
196
195
195
194
192
190
188
188
187
186
186
185
184
184
182
182
182
180
180
178
177
177
176
175
175
173
173
173
170
170
170
169
168
167
166
166
166
165
164
164
163
162
162
161
161
160
160
160
160
157
157
155
154
153
152
151
151
148
145
145
144
144
143
143
142
142
141
141
140
140
140
139
138
138
137
134
133
132
131
130
129
129
128
128
128
127
126
126
126
125
124
123
122
122
122
122
121
120
119
117
116
115
114
114
113
112
112
112
110
109
108
107
107
106
106
106
105
105
105
105
105
104
104
104
103
103
102
101
101
99
98
98
98
97
97
97
95
94
94
93
93
93
93
91
90
90
90
90
90
88
86
86
85
85
84
83
83
81
81
80
80
79
78
77
77
77
76
76
76
75
75
74
74
73
72
72
71
70
70
70
69
67
67
66
66
66
64
64
64
64
64
62
61
60
57
57
57
57
56
56
54
54
53
53
53
53
52
51
51
50
50
50
50
49
48
45
44
42
41
41
40
40
